20221024_PCST_ILP/Steiner1_dir_FC3_PtoC1_evid0.7_maxSt2_5_10.sol
# Objective value = -1.9690017575655418e+01
x_Dbf4_Cdc5 1
x_Cdc5_Ipl1 1
x_Cdc5_Ndc80 0
x_Ndc80_Ipl1 0
x_Dbf4_Rad53 0
x_Rad53_Cdc5 0
x_Rad53_Hht1 0
x_Hht1_Ipl1 0
x_Rad9_Cdc28 0
x_Cdc28_Cdc5 1
x_Cdc28_Slt2 0
x_Slt2_Spa2 1
x_Rad9_Hta1 0
x_Hta1_Hht1 0
x_Rad9_Hta2 0
x_Hta2_Hht1 0
x_Rad9_Rad53 0
x_Rad9_Rfa1 0
x_Rfa1_Hht1 0
x_Rad9_Rps31 1
x_Rps31_Nop1 0
x_Nop1_Nsr1 0
x_Rps31_Nop56 1
x_Nop56_Nsr1 1
x_Rps31_Snu13 0
x_Snu13_Nsr1 0
x_Snu13_Snu66 0
x_Rpo21_Glc7 0
x_Glc7_Cef1 0
x_Cef1_Snu66 0
x_Glc7_Hsh155 0
x_Hsh155_Snu66 0
x_Glc7_Ipl1 0
x_Glc7_Smd1 0
x_Smd1_Snu66 0
x_Glc7_Smd2 0
x_Smd2_Snu66 0
x_Rpo21_Hog1 0
x_Hog1_Slt2 1
x_Rpo21_Npl3 0
x_Npl3_Cef1 0
x_Npl3_Mud1 0
x_Mud1_Snu66 0
x_Npl3_Nam8 0
x_Nam8_Snu66 0
x_Npl3_Snp1 0
x_Snp1_Snu66 0
x_Npl3_Sto1 0
x_Sto1_Snu66 1
x_Rpo21_Sgv1 1
x_Sgv1_Sto1 1
x_Rpo21_Spt16 0
x_Spt16_Hht1 0
x_Rpo21_Ssu72 0
x_Ssu72_Glc7 0
x_Rpo21_Sth1 0
x_Sth1_Hht1 0
x_Rpo21_Taf14 0
x_Taf14_Hht1 0
x_Rpo21_Spt6 0
x_Spt6_Hht1 0
x_Rpo21_Set2 0
x_Set2_Hht1 0
x_Stb1_Cdc28 1
x_Ptp3_Hog1 1
x_Ptp3_Ptp2 0
x_Ptp2_Slt2 0
y_Dbf4 1
y_Cdc5 1
y_Ndc80 0
y_Rad53 0
y_Hht1 0
y_Rad9 1
y_Cdc28 1
y_Slt2 1
y_Hta1 0
y_Hta2 0
y_Rfa1 0
y_Rps31 1
y_Nop1 0
y_Nop56 1
y_Snu13 0
y_Rpo21 1
y_Glc7 0
y_Cef1 0
y_Hsh155 0
y_Smd1 0
y_Smd2 0
y_Hog1 1
y_Npl3 0
y_Mud1 0
y_Nam8 0
y_Snp1 0
y_Sto1 1
y_Sgv1 1
y_Spt16 0
y_Ssu72 0
y_Sth1 0
y_Taf14 0
y_Spt6 0
y_Set2 0
y_Stb1 1
y_Ptp3 1
y_Ptp2 0
y_Ipl1 1
y_Spa2 1
y_Nsr1 1
y_Snu66 1
